p edge 25 160
e 1 7 1
e 1 13 1
e 1 19 1
e 1 25 1
e 1 2 1
e 1 3 1
e 1 4 1
e 1 5 1
e 1 6 1
e 1 11 1
e 1 16 1
e 1 21 1
e 2 8 1
e 2 14 1
e 2 20 1
e 2 6 1
e 2 3 1
e 2 4 1
e 2 5 1
e 2 7 1
e 2 12 1
e 2 17 1
e 2 22 1
e 3 9 1
e 3 15 1
e 3 7 1
e 3 11 1
e 3 4 1
e 3 5 1
e 3 8 1
e 3 13 1
e 3 18 1
e 3 23 1
e 4 10 1
e 4 8 1
e 4 12 1
e 4 16 1
e 4 5 1
e 4 9 1
e 4 14 1
e 4 19 1
e 4 24 1
e 5 9 1
e 5 13 1
e 5 17 1
e 5 21 1
e 5 10 1
e 5 15 1
e 5 20 1
e 5 25 1
e 6 12 1
e 6 18 1
e 6 24 1
e 6 7 1
e 6 8 1
e 6 9 1
e 6 10 1
e 6 11 1
e 6 16 1
e 6 21 1
e 7 13 1
e 7 19 1
e 7 25 1
e 7 11 1
e 7 8 1
e 7 9 1
e 7 10 1
e 7 12 1
e 7 17 1
e 7 22 1
e 8 14 1
e 8 20 1
e 8 12 1
e 8 16 1
e 8 9 1
e 8 10 1
e 8 13 1
e 8 18 1
e 8 23 1
e 9 15 1
e 9 13 1
e 9 17 1
e 9 21 1
e 9 10 1
e 9 14 1
e 9 19 1
e 9 24 1
e 10 14 1
e 10 18 1
e 10 22 1
e 10 15 1
e 10 20 1
e 10 25 1
e 11 17 1
e 11 23 1
e 11 12 1
e 11 13 1
e 11 14 1
e 11 15 1
e 11 16 1
e 11 21 1
e 12 18 1
e 12 24 1
e 12 16 1
e 12 13 1
e 12 14 1
e 12 15 1
e 12 17 1
e 12 22 1
e 13 19 1
e 13 25 1
e 13 17 1
e 13 21 1
e 13 14 1
e 13 15 1
e 13 18 1
e 13 23 1
e 14 20 1
e 14 18 1
e 14 22 1
e 14 15 1
e 14 19 1
e 14 24 1
e 15 19 1
e 15 23 1
e 15 20 1
e 15 25 1
e 16 22 1
e 16 17 1
e 16 18 1
e 16 19 1
e 16 20 1
e 16 21 1
e 17 23 1
e 17 21 1
e 17 18 1
e 17 19 1
e 17 20 1
e 17 22 1
e 18 24 1
e 18 22 1
e 18 19 1
e 18 20 1
e 18 23 1
e 19 25 1
e 19 23 1
e 19 20 1
e 19 24 1
e 20 24 1
e 20 25 1
e 21 22 1
e 21 23 1
e 21 24 1
e 21 25 1
e 22 23 1
e 22 24 1
e 22 25 1
e 23 24 1
e 23 25 1
e 24 25 1